Traveling Salesman Problem/TSP_generados/Aleatorio1620391332_15.tsp
NAME: Aleatorio1620391332_15.tsp
COMMENT: Randomly generated scenario
TYPE: TSP
DIMENSION: 15
EDGE_WEIGHT_TYPE: ATT
NODE_COORD_SECTION
1 44.97 14.69
2 6.97 41.16
3 9.17 24.43
4 28.4 16.41
5 9.7 49.52
6 28.39 27.74
7 36.49 47.43
8 7.47 38.18
9 29.63 30.65
10 37.5 49.98
11 35.78 33.17
12 46.24 1.38
13 30.74 33.68
14 19.52 46.63
15 39.59 44.62
