Traveling Salesman Problem/TSP_generados/Aleatorio1620391332_15.opt.tour
NAME: Aleatorio1620391332_15.opt.tour
COMMENT: Optimal solution for Aleatorio1620391332_15 (163.2794612304427)
TYPE: TOUR
DIMENSION: 15
TOUR_SECTION
1 6 9 13 11 15 7 10 14 5 2 8 3 4 12
-1
EOF
